100 156872
80 55 47 23 9 73 63 91 60 78 61 34 87 81 72 99 64 27 71 92 69 24 35 83 36 38 100 62 85 88 50 59 42 93 68 45 74 17 33 79 6 39 58 97 5 86 7 54 14 57 32 65 46 2 66 76 44 19 98 41 37 16 28 11 4 96 1 10 53 40 84 3 22 18 26 49 20 95 13 21 77 82 29 15 30 12 90 75 70 31 25 94 67 52 43 8 48 56 89 51 
